# opt freq hf/3-21g

This line is comment

0 1
A           0.00000000       0.00000000       1.23205483
A           0.00090608       3.37381349       4.42601805
A           1.59528183       3.21469998       1.23205483
A           1.56643175       0.14336821       4.43239626
A           3.19046808       0.00000000       1.23205483
A           3.21017686       3.37414266       4.46377587
A           4.78574991       3.21469998       1.23205483
A           4.78649469       0.13544859       4.42510178
A           6.38103202       0.00000000       1.23205483
A           6.40542224       3.35036129       4.44012507
A           7.97621772       3.21469998       1.23205483
A           8.01362554       0.11921922       4.43408087
A           0.00000000       6.42939997       1.23205483
A           0.01086203       9.79474495       4.41950162
A           1.59528183       9.64409995       1.23205483
A           1.59533810       6.56612627       4.41928090
A           3.19046808       6.42939997       1.23205483
A           3.18665264       9.79984087       4.43645071
A           4.78574991       9.64409995       1.23205483
A           4.78918712       6.56742992       4.42078625
A           6.38103202       6.42939997       1.23205483
A           6.37499133       9.78822556       4.45284799
A           7.97621772       9.64409995       1.23205483
A           7.97316495       6.57219378       4.41960347
B           0.00000000       3.21469998       0.00000000
B           0.00159163       0.40995422       3.19980478
B           0.00000000       3.21469998       2.46431659
B           0.00882258       0.01672838       5.67905534
B           1.59528183       1.23213024       1.23205483
B           1.60436342       4.59907371       4.33223725
B           1.59528183       5.19726963       1.23205483
B           1.59569329       2.14357008       4.59517940
B           3.19046808       3.21469998       0.00000000
B           3.19474977       0.33293678       3.21398848
B           3.19046808       3.21469998       2.46431659
B           3.17836006       0.03491070       5.75913681
B           4.78574991       1.23213024       1.23205483
B           4.81175479       4.59849457       4.34970457
B           4.78574991       5.19726963       1.23205483
B           4.79803856       2.12999152       4.57247781
B           6.38103202       3.21469998       0.00000000
B           6.38386229       0.32208985       3.21575737
B           6.38103202       3.21469998       2.46431659
B           6.38884747      12.78101870       5.71129252
B           7.97621772       1.23213024       1.23205483
B           7.97444262       4.60127050       4.27008205
B           7.97621772       5.19726963       1.23205483
B           7.99821660       2.11790667       4.53738934
B           0.00000000       9.64409995       0.00000000
B          -0.00241801       6.79803438       3.20784837
B           0.00000000       9.64409995       2.46431659
B          -0.00047667       6.47307803       5.74709233
B           1.59528183       7.66153031       1.23205483
B           1.59262787      11.03725952       4.26481264
B           1.59528183      11.62666960       1.23205483
B           1.59855660       8.56348601       4.56502615
B           3.19046808       9.64409995       0.00000000
B           3.19074056       6.78672849       3.20595731
B           3.19046808       9.64409995       2.46431659
B           3.18648430       6.46954347       5.74384396
B           4.78574991       7.66153031       1.23205483
B           4.78557088      11.02613827       4.33023226
B           4.78574991      11.62666960       1.23205483
B           4.77440566       8.56086427       4.55591420
B           6.38103202       9.64409995       0.00000000
B           6.38063945       6.82221472       3.20281384
B           6.38103202       9.64409995       2.46431659
B           6.37634840       6.43832290       5.67474591
B           7.97621772       7.66153031       1.23205483
B           7.97902245      11.01424476       4.33496054
B           7.97621772      11.62666960       1.23205483
B           7.97984869       8.56199209       4.58602671
B           6.67694313       3.45973137       6.45489966
B           9.44364602       3.80572026       6.40934183
B           3.27483117       3.80228145       6.43832390
B           3.10836587      10.20878995       6.42315962
B           6.30803022      10.01653417       6.44578354
B           0.21072367      10.18358989       6.47655818
B           6.11379616       7.17309862       8.03363252
B           6.56636667       1.29150929       7.84067438
B           8.13148998       9.30465918       8.02485755
B           1.51441652       2.37366778       7.89145439
B           4.93004412       4.67263273       8.34090344
B           4.39453061       9.10266429       8.55744374
B           7.78403986       4.30190428       9.78622862
C           6.05323481       4.07563152       6.89785441
C           6.42650157       0.49811912       6.57830357
C           8.46850515       3.72987137       6.60013574
C          -0.00736667       5.54656215       6.15480383
C           2.61842564       3.24340517       6.96217505
C           3.16204317       5.54749685       6.15007995
C           2.15721137      10.08330800       6.65785677
C           3.18483088      11.96372557       6.15427949
C           6.19425502      10.98600878       6.56041311
C           6.29840762       6.87423204       6.64826718
C           9.06496847       9.68373860       7.20538349
C           0.06773484      11.17099571       6.49148457
C           5.69118735       6.33658123       8.35035073
C           5.44114190       7.91350960       8.21637663
C           7.43955103       1.11934291       8.23430226
C           6.63347248       2.18825172       7.34784034
C           7.31104402       9.55271701       7.42820790
C           8.02458200       8.35605228       8.23320783
C           0.78119968       2.84201506       7.38285815
C           1.55029130       1.47534008       7.51404634
C           4.26167761       4.32211641       7.66974692
C           4.80363479       4.14741782       9.15003058
C           3.99468645       9.49219320       7.72601123
C           3.64611097       8.86020560       9.12724827
C           7.23582037       4.12338863       9.00150284
C           8.48626089       3.62888308       9.76115222
Tv          9.57149982       0.00000000       0.00000000
Tv          0.00000000      12.85879993       0.00000000
Tv          0.00000000       0.00000000      20.67900085
