Comment line
1.0000000000
 +9.5714998200  +0.0000000000  +0.0000000000
 +0.0000000000 +12.8587999300  +0.0000000000
 +0.0000000000  +0.0000000000 +20.6790008500
 H Ir O
 26 24 61
Selective
Cartesian
 +3.1620431700  +5.5474968500  +6.1500799500  T T T
 +3.1848308800 +11.9637255700  +6.1542794900  T T T
 -0.0073666700  +5.5465621500  +6.1548038300  T T T
 +0.0677348400 +11.1709957100  +6.4914845700  T T T
 +6.1942550200 +10.9860087800  +6.5604131100  T T T
 +6.4265015700  +0.4981191200  +6.5783035700  T T T
 +8.4685051500  +3.7298713700  +6.6001357400  T T T
 +6.2984076200  +6.8742320400  +6.6482671800  T T T
 +2.1572113700 +10.0833080000  +6.6578567700  T T T
 +6.0532348100  +4.0756315200  +6.8978544100  T T T
 +2.6184256400  +3.2434051700  +6.9621750500  T T T
 +9.0649684700  +9.6837386000  +7.2053834900  T T T
 +6.6334724800  +2.1882517200  +7.3478403400  T T T
 +0.7811996800  +2.8420150600  +7.3828581500  T T T
 +7.3110440200  +9.5527170100  +7.4282079000  T T T
 +1.5502913000  +1.4753400800  +7.5140463400  T T T
 +4.2616776100  +4.3221164100  +7.6697469200  T T T
 +3.9946864500  +9.4921932000  +7.7260112300  T T T
 +5.4411419000  +7.9135096000  +8.2163766300  T T T
 +8.0245820000  +8.3560522800  +8.2332078300  T T T
 +7.4395510300  +1.1193429100  +8.2343022600  T T T
 +5.6911873500  +6.3365812300  +8.3503507300  T T T
 +7.2358203700  +4.1233886300  +9.0015028400  T T T
 +3.6461109700  +8.8602056000  +9.1272482700  T T T
 +4.8036347900  +4.1474178200  +9.1500305800  T T T
 +8.4862608900  +3.6288830800  +9.7611522200  T T T
 +0.0000000000  +0.0000000000  +1.2320548300  T T T
 +1.5952818300  +3.2146999800  +1.2320548300  T T T
 +3.1904680800  +0.0000000000  +1.2320548300  T T T
 +4.7857499100  +3.2146999800  +1.2320548300  T T T
 +6.3810320200  +0.0000000000  +1.2320548300  T T T
 +7.9762177200  +3.2146999800  +1.2320548300  T T T
 +0.0000000000  +6.4293999700  +1.2320548300  T T T
 +1.5952818300  +9.6440999500  +1.2320548300  T T T
 +3.1904680800  +6.4293999700  +1.2320548300  T T T
 +4.7857499100  +9.6440999500  +1.2320548300  T T T
 +6.3810320200  +6.4293999700  +1.2320548300  T T T
 +7.9762177200  +9.6440999500  +1.2320548300  T T T
 +1.5953381000  +6.5661262700  +4.4192809000  T T T
 +0.0108620300  +9.7947449500  +4.4195016200  T T T
 +7.9731649500  +6.5721937800  +4.4196034700  T T T
 +4.7891871200  +6.5674299200  +4.4207862500  T T T
 +4.7864946900  +0.1354485900  +4.4251017800  T T T
 +0.0009060800  +3.3738134900  +4.4260180500  T T T
 +1.5664317500  +0.1433682100  +4.4323962600  T T T
 +8.0136255400  +0.1192192200  +4.4340808700  T T T
 +3.1866526400  +9.7998408700  +4.4364507100  T T T
 +6.4054222400  +3.3503612900  +4.4401250700  T T T
 +6.3749913300  +9.7882255600  +4.4528479900  T T T
 +3.2101768600  +3.3741426600  +4.4637758700  T T T
 +0.0000000000  +3.2146999800  +0.0000000000  T T T
 +3.1904680800  +3.2146999800  +0.0000000000  T T T
 +6.3810320200  +3.2146999800  +0.0000000000  T T T
 +0.0000000000  +9.6440999500  +0.0000000000  T T T
 +3.1904680800  +9.6440999500  +0.0000000000  T T T
 +6.3810320200  +9.6440999500  +0.0000000000  T T T
 +1.5952818300  +1.2321302400  +1.2320548300  T T T
 +1.5952818300  +5.1972696300  +1.2320548300  T T T
 +4.7857499100  +1.2321302400  +1.2320548300  T T T
 +4.7857499100  +5.1972696300  +1.2320548300  T T T
 +7.9762177200  +1.2321302400  +1.2320548300  T T T
 +7.9762177200  +5.1972696300  +1.2320548300  T T T
 +1.5952818300  +7.6615303100  +1.2320548300  T T T
 +1.5952818300 +11.6266696000  +1.2320548300  T T T
 +4.7857499100  +7.6615303100  +1.2320548300  T T T
 +4.7857499100 +11.6266696000  +1.2320548300  T T T
 +7.9762177200  +7.6615303100  +1.2320548300  T T T
 +7.9762177200 +11.6266696000  +1.2320548300  T T T
 +0.0000000000  +3.2146999800  +2.4643165900  T T T
 +3.1904680800  +3.2146999800  +2.4643165900  T T T
 +6.3810320200  +3.2146999800  +2.4643165900  T T T
 +0.0000000000  +9.6440999500  +2.4643165900  T T T
 +3.1904680800  +9.6440999500  +2.4643165900  T T T
 +6.3810320200  +9.6440999500  +2.4643165900  T T T
 +0.0015916300  +0.4099542200  +3.1998047800  T T T
 +6.3806394500  +6.8222147200  +3.2028138400  T T T
 +3.1907405600  +6.7867284900  +3.2059573100  T T T
 -0.0024180100  +6.7980343800  +3.2078483700  T T T
 +3.1947497700  +0.3329367800  +3.2139884800  T T T
 +6.3838622900  +0.3220898500  +3.2157573700  T T T
 +1.5926278700 +11.0372595200  +4.2648126400  T T T
 +7.9744426200  +4.6012705000  +4.2700820500  T T T
 +4.7855708800 +11.0261382700  +4.3302322600  T T T
 +1.6043634200  +4.5990737100  +4.3322372500  T T T
 +7.9790224500 +11.0142447600  +4.3349605400  T T T
 +4.8117547900  +4.5984945700  +4.3497045700  T T T
 +7.9982166000  +2.1179066700  +4.5373893400  T T T
 +4.7744056600  +8.5608642700  +4.5559142000  T T T
 +1.5985566000  +8.5634860100  +4.5650261500  T T T
 +4.7980385600  +2.1299915200  +4.5724778100  T T T
 +7.9798486900  +8.5619920900  +4.5860267100  T T T
 +1.5956932900  +2.1435700800  +4.5951794000  T T T
 +6.3763484000  +6.4383229000  +5.6747459100  T T T
 +0.0088225800  +0.0167283800  +5.6790553400  T T T
 +6.3888474700 +12.7810187000  +5.7112925200  T T T
 +3.1864843000  +6.4695434700  +5.7438439600  T T T
 -0.0004766700  +6.4730780300  +5.7470923300  T T T
 +3.1783600600  +0.0349107000  +5.7591368100  T T T
 +9.4436460200  +3.8057202600  +6.4093418300  T T T
 +3.1083658700 +10.2087899500  +6.4231596200  T T T
 +3.2748311700  +3.8022814500  +6.4383239000  T T T
 +6.3080302200 +10.0165341700  +6.4457835400  T T T
 +6.6769431300  +3.4597313700  +6.4548996600  T T T
 +0.2107236700 +10.1835898900  +6.4765581800  T T T
 +6.5663666700  +1.2915092900  +7.8406743800  T T T
 +1.5144165200  +2.3736677800  +7.8914543900  T T T
 +8.1314899800  +9.3046591800  +8.0248575500  T T T
 +6.1137961600  +7.1730986200  +8.0336325200  T T T
 +4.9300441200  +4.6726327300  +8.3409034400  T T T
 +4.3945306100  +9.1026642900  +8.5574437400  T T T
 +7.7840398600  +4.3019042800  +9.7862286200  T T T
